0 0 0 0
0 1 0 0
0 2 1 0
0 3 2 0
0 4 0 9
0 5 2 1
0 6 2 9
0 7 1 13
0 8 2 2
0 9 0 12
0 10 1 9
0 11 2 2
0 12 1 10
0 13 2 10
0 14 0 19
0 15 2 15
0 16 0 14
0 17 1 21
0 18 0 21
0 19 1 15
0 20 0 23
0 21 2 20
0 22 2 1
0 23 1 21
0 24 2 17
0 25 1 25
0 26 1 27
0 27 2 26
0 28 2 31
0 29 1 36
0 30 2 29
0 31 0 40
